




































































































96 1 83 56 105 20 43 93 45 
68 80 90 22 44 86 95 67 
62 61 69 16 19 64 39 92 
3 76 40 106 27 99 13 21 
77 49 52 17 89 63 75 87 
18 15 46 100 60 108 70 113 54 
82 24 114 101 6 98 65 12 72 
57 97 55 85 28 26 37 47 23 
112 58 103 81 50 8 2 59 
109 5 88 111 38 41 36 34 
51 4 0 94 14 102 42 78 104 
29 33 31 35 91 30 84 73 48 
11 10 9 107 53 79 7 71 
110 25 74 32 66 
